(set-info :smt-lib-version 2.6)
(set-logic QF_S)
(set-info :source |
Generated by: Murphy Berzish, Mitja Kulczynski, Federico Mora, Florin Manea, Joel Day, Dirk Nowotka, Vijay Ganesh, Zhengyang Lu
Generated on: 2020-10-01
Description: Translated from a collection of real-world regex queries, AutomataArk, collected by Loris D’Antoni and Fang Wang: https://github.com/lorisdanto/automatark
Application: Evaluate solvers on real-world regex queries
Target solver: Z3str3RE, CVC4, OSTRICH, Z3seq, Z3str3, Z3-Trau
Publications: Berzish, M., Kulczynski, M., Mora, F., Manea, F., Day, J. D., Nowotka, D., & Ganesh, V. (2021, July). An SMT solver for regular expressions and linear arithmetic over string length. In CAV 2021.
|)
(set-info :license "https://creativecommons.org/licenses/by/4.0/")
(set-info :category "industrial")
(set-info :status sat)

(declare-const X String)
(assert (not (str.in_re X (re.++ (str.to_re "/<rt") (re.* (re.comp (str.to_re "?"))) (str.to_re "style") (re.* (re.union (str.to_re " ") (str.to_re "\u{9}") (str.to_re "\u{a}") (str.to_re "\u{c}") (str.to_re "\u{d}"))) (str.to_re "=") (re.* (re.union (str.to_re " ") (str.to_re "\u{9}") (str.to_re "\u{a}") (str.to_re "\u{c}") (str.to_re "\u{d}"))) (re.opt (re.union (str.to_re "\u{22}") (str.to_re "'"))) (str.to_re "-ms-hyphens") (re.* (re.union (str.to_re " ") (str.to_re "\u{9}") (str.to_re "\u{a}") (str.to_re "\u{c}") (str.to_re "\u{d}"))) (str.to_re ":") (re.* (re.union (str.to_re " ") (str.to_re "\u{9}") (str.to_re "\u{a}") (str.to_re "\u{c}") (str.to_re "\u{d}"))) (str.to_re "auto") (re.* (re.union (str.to_re " ") (str.to_re "\u{9}") (str.to_re "\u{a}") (str.to_re "\u{c}") (str.to_re "\u{d}"))) (str.to_re ";") (re.* (re.union (str.to_re " ") (str.to_re "\u{9}") (str.to_re "\u{a}") (str.to_re "\u{c}") (str.to_re "\u{d}"))) (re.opt (re.union (str.to_re "'") (str.to_re "\u{22}"))) (str.to_re ">") ((_ re.loop 680 680) (re.union (re.comp (re.union (re.range "0" "9") (re.range "A" "Z") (re.range "a" "z") (str.to_re "_"))) (re.range "0" "9") (re.range "A" "Z") (re.range "a" "z") (str.to_re "_"))) (str.to_re "/smi\u{a}")))))
(assert (not (str.in_re X (re.++ (str.to_re "AdTools") (re.union (str.to_re " ") (str.to_re "\u{9}") (str.to_re "\u{a}") (str.to_re "\u{c}") (str.to_re "\u{d}")) (str.to_re "downloadfile.org") (re.+ (re.union (re.range "0" "9") (re.range "A" "Z") (re.range "a" "z") (str.to_re "_"))) (str.to_re "com>") (re.* (re.union (str.to_re "\u{a}") (str.to_re "\u{d}"))) (str.to_re "as.starware.comOS/SSKCstech.web-nexus.net\u{a}")))))
(assert (not (str.in_re X (re.union (re.++ (re.union (str.to_re "Sun") (str.to_re "Mon") (re.++ (str.to_re "T") (re.union (str.to_re "ues") (str.to_re "hurs"))) (str.to_re "Fri")) (re.opt (re.union (str.to_re "day") (str.to_re ".")))) (re.++ (str.to_re "Wed") (re.opt (re.union (str.to_re ".") (str.to_re "nesday")))) (re.++ (str.to_re "Sat") (re.opt (re.union (str.to_re ".") (str.to_re "urday")))) (re.++ (str.to_re "T") (re.union (re.++ (str.to_re "u") (re.opt (str.to_re "e"))) (re.++ (str.to_re "h") (re.opt (str.to_re "u")) (re.opt (str.to_re "r")))) (re.opt (str.to_re ".")) (str.to_re "\u{a}"))))))
(check-sat)

(exit)
